Maximize
 obj: 501179 x0 + 467747 x1 + 36719 x2 + 561819 x3 + 638180 x4 + 210967 x5 + 259596 x6 + 30683 x7 + 616264 x8 + 782829 x9 + 48666 x10 + 460964 x11 + 682191 x12 + 619027 x13 + 572840 x14 + 734234 x15 + 891667 x16 + 423136 x17 + 535757 x18 + 56358 x19 + 71023 x20 
Subject To
 c1:  x4 +  x11  <= 1
 c2:  x14  <= 1
 c3:  x8 +  x9 +  x14 +  x16  <= 1
 c4:  x3  <= 1
 c5:  x8  <= 1
 c6:  x18  <= 1
 c7:  x4 +  x6 +  x18  <= 1
 c8:  x4 +  x17  <= 1
 c9:  x14  <= 1
 c10:  x1  <= 1
 c11:  x4 +  x5 +  x11  <= 1
 c12:  x0 +  x1  <= 1
 c13:  x3 +  x4  <= 1
 c14:  x5 +  x6  <= 1
 c15:  x13 +  x14  <= 1
 c16:  x0 +  x4 +  x13 +  x14  <= 1
 c17:  x9 +  x15  <= 1
 c18:  x9 +  x12  <= 1
 c19:  x4 +  x11  <= 1
 c20:  x1 +  x14 +  x15  <= 1
 c21:  x9 +  x15 +  x18  <= 1
 c22:  x3 +  x4 +  x8 +  x13  <= 1
 c23:  x0 +  x1 +  x16  <= 1
 c24:  x8 +  x11 +  x12 +  x15  <= 1
 c25:  x1  <= 1
 c26:  x1 +  x8 +  x9 +  x12 +  x16  <= 1
 c27:  x1  <= 1
 c28:  x3 +  x8 +  x14  <= 1
 c29:  x11 +  x16 +  x17  <= 1
 c30:  x0 +  x18  <= 1
 c31:  x0 +  x9  <= 1
 c32:  x13 +  x15 +  x16  <= 1
 c33:  x18  <= 1
 c34:  x12  <= 1
 c35:  x8 +  x13 +  x17 +  x20  <= 1
 c36:  x8 +  x9 +  x16  <= 1
 c37:  x12 +  x13 +  x15 +  x16  <= 1
 c38:  x8 +  x16 +  x17  <= 1
 c39:  x5 +  x10  <= 1
 c40:  x4 +  x5 +  x6 +  x11 +  x13  <= 1
 c41:  x16  <= 1
 c42:  x3 +  x8 +  x11 +  x13  <= 1
 c43:  x19 +  x20  <= 1
 c44:  x17 +  x18  <= 1
 c45:  x15 +  x16  <= 1
 c46:  x13 +  x14  <= 1
 c47:  x11 +  x12  <= 1
 c48:  x8 +  x9  <= 1
 c49:  x15 +  x16 +  x17 +  x18  <= 1
 c50:  x12  <= 1
 c51:  x3 +  x6 +  x12 +  x14 +  x16  <= 1
 c52:  x3 +  x4 +  x15 +  x17 +  x18  <= 1
 c53:  x11  <= 1
 c54:  x9 +  x12  <= 1
 c55:  x3 +  x12 +  x19 +  x20  <= 1
 c56:  x3 +  x9 +  x11 +  x12 +  x13  <= 1
 c57:  x11 +  x15  <= 1
 c58:  x0 +  x9  <= 1
 c59:  x0 +  x1 +  x2 +  x11 +  x12 +  x17  <= 1
 c60:  x3 +  x9  <= 1
 c61:  x0 +  x15  <= 1
 c62:  x7 +  x8 +  x11 +  x15  <= 1
 c63:  x16  <= 1
 c64:  x14  <= 1
 c65:  x5  <= 1
 c66:  x12 +  x15 +  x19  <= 1
 c67:  x6 +  x7  <= 1
 c68:  x15  <= 1
 c69:  x16  <= 1
Bounds
 0 <= x0 <= 1
 0 <= x1 <= 1
 0 <= x2 <= 1
 0 <= x3 <= 1
 0 <= x4 <= 1
 0 <= x5 <= 1
 0 <= x6 <= 1
 0 <= x7 <= 1
 0 <= x8 <= 1
 0 <= x9 <= 1
 0 <= x10 <= 1
 0 <= x11 <= 1
 0 <= x12 <= 1
 0 <= x13 <= 1
 0 <= x14 <= 1
 0 <= x15 <= 1
 0 <= x16 <= 1
 0 <= x17 <= 1
 0 <= x18 <= 1
 0 <= x19 <= 1
 0 <= x20 <= 1
End